(set-logic HORN)

(declare-fun $main_inv131 ((Array Int Int) (Array Int Int) (Array Int Int) (Array Int Int) (Array Int Int) (Array Int Int) Int Int Int) Bool)
(declare-fun $main_sum127 ((Array Int Int) (Array Int Int) (Array Int Int) (Array Int Int) (Array Int Int) (Array Int Int) Int Int Int (Array Int Int) (Array Int Int) (Array Int Int) (Array Int Int) (Array Int Int) (Array Int Int) Int Int Int) Bool)
(declare-fun $main_sum128 ((Array Int Int) (Array Int Int) (Array Int Int) (Array Int Int) (Array Int Int) (Array Int Int) Int Int Int (Array Int Int) (Array Int Int) (Array Int Int) (Array Int Int) (Array Int Int) (Array Int Int) Int Int Int) Bool)
(declare-fun $main_inv126 ((Array Int Int) (Array Int Int) (Array Int Int) (Array Int Int) (Array Int Int) (Array Int Int) Int Int Int) Bool)
(declare-fun __VERIFIER_assert (Int) Bool)
(declare-fun $__VERIFIER_assert_ERROR (Int Int) Bool)
(declare-fun $main_sum125 ((Array Int Int) (Array Int Int) (Array Int Int) (Array Int Int) (Array Int Int) (Array Int Int) Int Int Int (Array Int Int) (Array Int Int) (Array Int Int) (Array Int Int) (Array Int Int) (Array Int Int) Int Int Int) Bool)
(declare-fun $main_inv127 ((Array Int Int) (Array Int Int) (Array Int Int) (Array Int Int) (Array Int Int) (Array Int Int) Int Int Int) Bool)
(declare-fun $main_inv125 ((Array Int Int) (Array Int Int) (Array Int Int) (Array Int Int) (Array Int Int) (Array Int Int) Int Int Int) Bool)
(declare-fun $main_sum126 ((Array Int Int) (Array Int Int) (Array Int Int) (Array Int Int) (Array Int Int) (Array Int Int) Int Int Int (Array Int Int) (Array Int Int) (Array Int Int) (Array Int Int) (Array Int Int) (Array Int Int) Int Int Int) Bool)
(declare-fun $main_sum129 ((Array Int Int) (Array Int Int) (Array Int Int) (Array Int Int) (Array Int Int) (Array Int Int) Int Int Int (Array Int Int) (Array Int Int) (Array Int Int) (Array Int Int) (Array Int Int) (Array Int Int) Int Int Int) Bool)
(declare-fun $main_sum130 ((Array Int Int) (Array Int Int) (Array Int Int) (Array Int Int) (Array Int Int) (Array Int Int) Int Int Int (Array Int Int) (Array Int Int) (Array Int Int) (Array Int Int) (Array Int Int) (Array Int Int) Int Int Int) Bool)
(declare-fun $main_inv130 ((Array Int Int) (Array Int Int) (Array Int Int) (Array Int Int) (Array Int Int) (Array Int Int) Int Int Int) Bool)
(declare-fun $__VERIFIER_assert_pre (Int) Bool)
(declare-fun $main_inv128 ((Array Int Int) (Array Int Int) (Array Int Int) (Array Int Int) (Array Int Int) (Array Int Int) Int Int Int) Bool)
(declare-fun $main_sum131 ((Array Int Int) (Array Int Int) (Array Int Int) (Array Int Int) (Array Int Int) (Array Int Int) Int Int Int (Array Int Int) (Array Int Int) (Array Int Int) (Array Int Int) (Array Int Int) (Array Int Int) Int Int Int) Bool)
(declare-fun $__VERIFIER_assert_if51 (Int Int) Bool)
(declare-fun $main_inv129 ((Array Int Int) (Array Int Int) (Array Int Int) (Array Int Int) (Array Int Int) (Array Int Int) Int Int Int) Bool)

; label ERROR
(assert
  (forall ((cond Int))
    (=> (and (= cond 0)
             ($__VERIFIER_assert_pre cond))
        ($__VERIFIER_assert_ERROR cond cond))))

; error
(assert
  (forall ((cond Int) (cond2695 Int))
    (=> (and ($__VERIFIER_assert_ERROR cond cond2695))
        false)))

; if else
(assert
  (forall ((cond Int))
    (=> (and (not (= cond 0))
             ($__VERIFIER_assert_pre cond))
        ($__VERIFIER_assert_if51 cond cond))))

; post __VERIFIER_assert
(assert
  (forall ((cond2696 Int) (cond Int))
    (=> (and ($__VERIFIER_assert_if51 cond cond2696))
        (__VERIFIER_assert cond2696))))

; loop entry $main_inv125
(assert
  (forall (($a4209 (Array Int Int)) ($a6211 (Array Int Int)) ($a2207 (Array Int Int)) ($a3208 (Array Int Int)) ($a1206 (Array Int Int)) ($i213 Int) ($a5210 (Array Int Int)) ($x214 Int))
        ($main_inv125 $a1206 $a2207 $a3208 $a4209 $a5210 $a6211 0 $i213 $x214)))

; loop term $main_sum125
(assert
  (forall (($a12062697 (Array Int Int)) ($i2132704 Int) ($a42092700 (Array Int Int)) ($a2122703 Int) ($a52102701 (Array Int Int)) ($a22072698 (Array Int Int)) ($x2142705 Int) ($a32082699 (Array Int Int)) ($a62112702 (Array Int Int)))
    (=> (and (not (< $a2122703 100000)))
        ($main_sum125 $a12062697 $a22072698 $a32082699 $a42092700 $a52102701 $a62112702 $a2122703 $i2132704 $x2142705 $a12062697 $a22072698 $a32082699 $a42092700 $a52102701 $a62112702 $a2122703 $i2132704 $x2142705))))

; forwards $main_inv125
(assert
  (forall (($a12062697 (Array Int Int)) ($i2132704 Int) ($a42092700 (Array Int Int)) ($a2122703 Int) ($a22072698 (Array Int Int)) ($x2142705 Int) ($a32082699 (Array Int Int)) ($a62112702 (Array Int Int)) ($a52102701 (Array Int Int)) ($int2706 Int))
    (=> (and (<= (- 2147483648) $int2706)
             (<= $int2706 2147483647)
             (< $a2122703 100000)
             ($main_inv125 $a12062697 $a22072698 $a32082699 $a42092700 $a52102701 $a62112702 $a2122703 $i2132704 $x2142705))
        ($main_inv125 (store $a12062697 $a2122703 $int2706) $a22072698 $a32082699 $a42092700 $a52102701 $a62112702 (+ $a2122703 1) $i2132704 $x2142705))))

; backwards $main_sum125
(assert
  (forall (($a52102711 (Array Int Int)) ($a12062697 (Array Int Int)) ($i2132704 Int) ($x2142715 Int) ($a42092700 (Array Int Int)) ($a62112712 (Array Int Int)) ($a2122703 Int) ($a32082709 (Array Int Int)) ($a42092710 (Array Int Int)) ($x2142705 Int) ($a2122713 Int) ($i2132714 Int) ($a22072708 (Array Int Int)) ($a32082699 (Array Int Int)) ($a62112702 (Array Int Int)) ($a52102701 (Array Int Int)) ($int2706 Int) ($a22072698 (Array Int Int)) ($a12062707 (Array Int Int)))
    (=> (and ($main_sum125 (store $a12062697 $a2122703 $int2706) $a22072698 $a32082699 $a42092700 $a52102701 $a62112702 (+ $a2122703 1) $i2132704 $x2142705 $a12062707 $a22072708 $a32082709 $a42092710 $a52102711 $a62112712 $a2122713 $i2132714 $x2142715)
             (<= (- 2147483648) $int2706)
             (<= $int2706 2147483647)
             (< $a2122703 100000))
        ($main_sum125 $a12062697 $a22072698 $a32082699 $a42092700 $a52102701 $a62112702 $a2122703 $i2132704 $x2142705 $a12062707 $a22072708 $a32082709 $a42092710 $a52102711 $a62112712 $a2122713 $i2132714 $x2142715))))

; loop entry $main_inv126
(assert
  (forall (($a32082718 (Array Int Int)) ($a22072717 (Array Int Int)) ($a62112721 (Array Int Int)) ($a4209 (Array Int Int)) ($a6211 (Array Int Int)) ($x2142724 Int) ($i2132723 Int) ($a1206 (Array Int Int)) ($i213 Int) ($a5210 (Array Int Int)) ($a42092719 (Array Int Int)) ($a52102720 (Array Int Int)) ($x214 Int) ($a2207 (Array Int Int)) ($a12062716 (Array Int Int)) ($a2122722 Int) ($a3208 (Array Int Int)))
    (=> (and ($main_sum125 $a1206 $a2207 $a3208 $a4209 $a5210 $a6211 0 $i213 $x214 $a12062716 $a22072717 $a32082718 $a42092719 $a52102720 $a62112721 $a2122722 $i2132723 $x2142724))
        ($main_inv126 $a12062716 $a22072717 $a32082718 $a42092719 $a52102720 $a62112721 $a2122722 0 $x2142724))))

; loop term $main_sum126
(assert
  (forall (($a42092728 (Array Int Int)) ($a32082727 (Array Int Int)) ($a12062725 (Array Int Int)) ($i2132732 Int) ($a22072726 (Array Int Int)) ($a52102729 (Array Int Int)) ($a62112730 (Array Int Int)) ($a2122731 Int) ($x2142733 Int))
    (=> (and (not (< $i2132732 100000)))
        ($main_sum126 $a12062725 $a22072726 $a32082727 $a42092728 $a52102729 $a62112730 $a2122731 $i2132732 $x2142733 $a12062725 $a22072726 $a32082727 $a42092728 $a52102729 $a62112730 $a2122731 $i2132732 $x2142733))))

; forwards $main_inv126
(assert
  (forall (($a42092728 (Array Int Int)) ($a32082727 (Array Int Int)) ($a12062725 (Array Int Int)) ($i2132732 Int) ($a22072726 (Array Int Int)) ($a52102729 (Array Int Int)) ($a62112730 (Array Int Int)) ($a2122731 Int) ($x2142733 Int))
    (=> (and (< $i2132732 100000)
             ($main_inv126 $a12062725 $a22072726 $a32082727 $a42092728 $a52102729 $a62112730 $a2122731 $i2132732 $x2142733))
        ($main_inv126 $a12062725 (store $a22072726 $i2132732 (select $a12062725 $i2132732)) $a32082727 $a42092728 $a52102729 $a62112730 $a2122731 (+ $i2132732 1) $x2142733))))

; backwards $main_sum126
(assert
  (forall (($a42092728 (Array Int Int)) ($a32082727 (Array Int Int)) ($i2132732 Int) ($a22072726 (Array Int Int)) ($a52102729 (Array Int Int)) ($a62112739 (Array Int Int)) ($a52102738 (Array Int Int)) ($a2122740 Int) ($a62112730 (Array Int Int)) ($a12062734 (Array Int Int)) ($a22072735 (Array Int Int)) ($i2132741 Int) ($x2142742 Int) ($a42092737 (Array Int Int)) ($a12062725 (Array Int Int)) ($a2122731 Int) ($a32082736 (Array Int Int)) ($x2142733 Int))
    (=> (and ($main_sum126 $a12062725 (store $a22072726 $i2132732 (select $a12062725 $i2132732)) $a32082727 $a42092728 $a52102729 $a62112730 $a2122731 (+ $i2132732 1) $x2142733 $a12062734 $a22072735 $a32082736 $a42092737 $a52102738 $a62112739 $a2122740 $i2132741 $x2142742)
             (< $i2132732 100000))
        ($main_sum126 $a12062725 $a22072726 $a32082727 $a42092728 $a52102729 $a62112730 $a2122731 $i2132732 $x2142733 $a12062734 $a22072735 $a32082736 $a42092737 $a52102738 $a62112739 $a2122740 $i2132741 $x2142742))))

; loop entry $main_inv127
(assert
  (forall (($a32082718 (Array Int Int)) ($a22072717 (Array Int Int)) ($a4209 (Array Int Int)) ($a6211 (Array Int Int)) ($i2132723 Int) ($a1206 (Array Int Int)) ($a42092719 (Array Int Int)) ($a62112748 (Array Int Int)) ($a52102720 (Array Int Int)) ($x214 Int) ($a42092746 (Array Int Int)) ($a62112721 (Array Int Int)) ($a22072744 (Array Int Int)) ($a52102747 (Array Int Int)) ($x2142724 Int) ($a2207 (Array Int Int)) ($a12062716 (Array Int Int)) ($a2122722 Int) ($a3208 (Array Int Int)) ($i2132750 Int) ($a12062743 (Array Int Int)) ($i213 Int) ($a32082745 (Array Int Int)) ($x2142751 Int) ($a5210 (Array Int Int)) ($a2122749 Int))
    (=> (and ($main_sum126 $a12062716 $a22072717 $a32082718 $a42092719 $a52102720 $a62112721 $a2122722 0 $x2142724 $a12062743 $a22072744 $a32082745 $a42092746 $a52102747 $a62112748 $a2122749 $i2132750 $x2142751)
             ($main_sum125 $a1206 $a2207 $a3208 $a4209 $a5210 $a6211 0 $i213 $x214 $a12062716 $a22072717 $a32082718 $a42092719 $a52102720 $a62112721 $a2122722 $i2132723 $x2142724))
        ($main_inv127 $a12062743 $a22072744 $a32082745 $a42092746 $a52102747 $a62112748 $a2122749 0 $x2142751))))

; loop term $main_sum127
(assert
  (forall (($a52102756 (Array Int Int)) ($a22072753 (Array Int Int)) ($x2142760 Int) ($a42092755 (Array Int Int)) ($a2122758 Int) ($a32082754 (Array Int Int)) ($i2132759 Int) ($a62112757 (Array Int Int)) ($a12062752 (Array Int Int)))
    (=> (and (not (< $i2132759 100000)))
        ($main_sum127 $a12062752 $a22072753 $a32082754 $a42092755 $a52102756 $a62112757 $a2122758 $i2132759 $x2142760 $a12062752 $a22072753 $a32082754 $a42092755 $a52102756 $a62112757 $a2122758 $i2132759 $x2142760))))

; forwards $main_inv127
(assert
  (forall (($a52102756 (Array Int Int)) ($a22072753 (Array Int Int)) ($x2142760 Int) ($a42092755 (Array Int Int)) ($a2122758 Int) ($a32082754 (Array Int Int)) ($i2132759 Int) ($a62112757 (Array Int Int)) ($a12062752 (Array Int Int)))
    (=> (and (< $i2132759 100000)
             ($main_inv127 $a12062752 $a22072753 $a32082754 $a42092755 $a52102756 $a62112757 $a2122758 $i2132759 $x2142760))
        ($main_inv127 $a12062752 $a22072753 (store $a32082754 $i2132759 (select $a22072753 $i2132759)) $a42092755 $a52102756 $a62112757 $a2122758 (+ $i2132759 1) $x2142760))))

; backwards $main_sum127
(assert
  (forall (($x2142769 Int) ($a32082763 (Array Int Int)) ($a52102756 (Array Int Int)) ($i2132768 Int) ($a22072753 (Array Int Int)) ($x2142760 Int) ($a42092764 (Array Int Int)) ($a42092755 (Array Int Int)) ($a2122758 Int) ($a12062761 (Array Int Int)) ($a32082754 (Array Int Int)) ($i2132759 Int) ($a22072762 (Array Int Int)) ($a52102765 (Array Int Int)) ($a62112766 (Array Int Int)) ($a2122767 Int) ($a62112757 (Array Int Int)) ($a12062752 (Array Int Int)))
    (=> (and ($main_sum127 $a12062752 $a22072753 (store $a32082754 $i2132759 (select $a22072753 $i2132759)) $a42092755 $a52102756 $a62112757 $a2122758 (+ $i2132759 1) $x2142760 $a12062761 $a22072762 $a32082763 $a42092764 $a52102765 $a62112766 $a2122767 $i2132768 $x2142769)
             (< $i2132759 100000))
        ($main_sum127 $a12062752 $a22072753 $a32082754 $a42092755 $a52102756 $a62112757 $a2122758 $i2132759 $x2142760 $a12062761 $a22072762 $a32082763 $a42092764 $a52102765 $a62112766 $a2122767 $i2132768 $x2142769))))

; loop entry $main_inv128
(assert
  (forall (($a32082718 (Array Int Int)) ($a22072717 (Array Int Int)) ($a52102774 (Array Int Int)) ($a6211 (Array Int Int)) ($i2132723 Int) ($x2142778 Int) ($a2122776 Int) ($a1206 (Array Int Int)) ($a42092719 (Array Int Int)) ($i2132777 Int) ($a62112748 (Array Int Int)) ($a52102720 (Array Int Int)) ($x214 Int) ($a42092746 (Array Int Int)) ($a62112721 (Array Int Int)) ($a4209 (Array Int Int)) ($a62112775 (Array Int Int)) ($a32082772 (Array Int Int)) ($a12062770 (Array Int Int)) ($a22072744 (Array Int Int)) ($a52102747 (Array Int Int)) ($x2142724 Int) ($a2207 (Array Int Int)) ($a12062716 (Array Int Int)) ($a2122722 Int) ($a3208 (Array Int Int)) ($a22072771 (Array Int Int)) ($i2132750 Int) ($a12062743 (Array Int Int)) ($i213 Int) ($a32082745 (Array Int Int)) ($a42092773 (Array Int Int)) ($x2142751 Int) ($a5210 (Array Int Int)) ($a2122749 Int))
    (=> (and ($main_sum127 $a12062743 $a22072744 $a32082745 $a42092746 $a52102747 $a62112748 $a2122749 0 $x2142751 $a12062770 $a22072771 $a32082772 $a42092773 $a52102774 $a62112775 $a2122776 $i2132777 $x2142778)
             ($main_sum126 $a12062716 $a22072717 $a32082718 $a42092719 $a52102720 $a62112721 $a2122722 0 $x2142724 $a12062743 $a22072744 $a32082745 $a42092746 $a52102747 $a62112748 $a2122749 $i2132750 $x2142751)
             ($main_sum125 $a1206 $a2207 $a3208 $a4209 $a5210 $a6211 0 $i213 $x214 $a12062716 $a22072717 $a32082718 $a42092719 $a52102720 $a62112721 $a2122722 $i2132723 $x2142724))
        ($main_inv128 $a12062770 $a22072771 $a32082772 $a42092773 $a52102774 $a62112775 $a2122776 0 $x2142778))))

; loop term $main_sum128
(assert
  (forall (($a2122785 Int) ($a12062779 (Array Int Int)) ($a22072780 (Array Int Int)) ($a42092782 (Array Int Int)) ($a62112784 (Array Int Int)) ($a32082781 (Array Int Int)) ($x2142787 Int) ($i2132786 Int) ($a52102783 (Array Int Int)))
    (=> (and (not (< $i2132786 100000)))
        ($main_sum128 $a12062779 $a22072780 $a32082781 $a42092782 $a52102783 $a62112784 $a2122785 $i2132786 $x2142787 $a12062779 $a22072780 $a32082781 $a42092782 $a52102783 $a62112784 $a2122785 $i2132786 $x2142787))))

; forwards $main_inv128
(assert
  (forall (($a2122785 Int) ($a12062779 (Array Int Int)) ($a22072780 (Array Int Int)) ($a42092782 (Array Int Int)) ($a62112784 (Array Int Int)) ($a32082781 (Array Int Int)) ($x2142787 Int) ($i2132786 Int) ($a52102783 (Array Int Int)))
    (=> (and (< $i2132786 100000)
             ($main_inv128 $a12062779 $a22072780 $a32082781 $a42092782 $a52102783 $a62112784 $a2122785 $i2132786 $x2142787))
        ($main_inv128 $a12062779 $a22072780 $a32082781 (store $a42092782 $i2132786 (select $a32082781 $i2132786)) $a52102783 $a62112784 $a2122785 (+ $i2132786 1) $x2142787))))

; backwards $main_sum128
(assert
  (forall (($a22072789 (Array Int Int)) ($a2122785 Int) ($x2142796 Int) ($i2132795 Int) ($a42092782 (Array Int Int)) ($a32082781 (Array Int Int)) ($x2142787 Int) ($a62112793 (Array Int Int)) ($a12062779 (Array Int Int)) ($a32082790 (Array Int Int)) ($a22072780 (Array Int Int)) ($a12062788 (Array Int Int)) ($a2122794 Int) ($a62112784 (Array Int Int)) ($i2132786 Int) ($a52102783 (Array Int Int)) ($a42092791 (Array Int Int)) ($a52102792 (Array Int Int)))
    (=> (and ($main_sum128 $a12062779 $a22072780 $a32082781 (store $a42092782 $i2132786 (select $a32082781 $i2132786)) $a52102783 $a62112784 $a2122785 (+ $i2132786 1) $x2142787 $a12062788 $a22072789 $a32082790 $a42092791 $a52102792 $a62112793 $a2122794 $i2132795 $x2142796)
             (< $i2132786 100000))
        ($main_sum128 $a12062779 $a22072780 $a32082781 $a42092782 $a52102783 $a62112784 $a2122785 $i2132786 $x2142787 $a12062788 $a22072789 $a32082790 $a42092791 $a52102792 $a62112793 $a2122794 $i2132795 $x2142796))))

; loop entry $main_inv129
(assert
  (forall (($a32082718 (Array Int Int)) ($a52102774 (Array Int Int)) ($a6211 (Array Int Int)) ($i2132723 Int) ($x2142778 Int) ($a12062797 (Array Int Int)) ($a2122776 Int) ($a62112802 (Array Int Int)) ($x2142805 Int) ($a42092719 (Array Int Int)) ($i2132777 Int) ($a42092800 (Array Int Int)) ($a62112748 (Array Int Int)) ($a52102720 (Array Int Int)) ($x214 Int) ($a22072717 (Array Int Int)) ($a2122803 Int) ($a42092746 (Array Int Int)) ($a22072798 (Array Int Int)) ($a62112721 (Array Int Int)) ($a4209 (Array Int Int)) ($a32082799 (Array Int Int)) ($a52102801 (Array Int Int)) ($a62112775 (Array Int Int)) ($a32082772 (Array Int Int)) ($a12062770 (Array Int Int)) ($a22072744 (Array Int Int)) ($a52102747 (Array Int Int)) ($x2142724 Int) ($a2207 (Array Int Int)) ($a12062716 (Array Int Int)) ($a2122722 Int) ($a3208 (Array Int Int)) ($a22072771 (Array Int Int)) ($i2132750 Int) ($a12062743 (Array Int Int)) ($a1206 (Array Int Int)) ($i2132804 Int) ($i213 Int) ($a32082745 (Array Int Int)) ($a42092773 (Array Int Int)) ($x2142751 Int) ($a5210 (Array Int Int)) ($a2122749 Int))
    (=> (and ($main_sum128 $a12062770 $a22072771 $a32082772 $a42092773 $a52102774 $a62112775 $a2122776 0 $x2142778 $a12062797 $a22072798 $a32082799 $a42092800 $a52102801 $a62112802 $a2122803 $i2132804 $x2142805)
             ($main_sum127 $a12062743 $a22072744 $a32082745 $a42092746 $a52102747 $a62112748 $a2122749 0 $x2142751 $a12062770 $a22072771 $a32082772 $a42092773 $a52102774 $a62112775 $a2122776 $i2132777 $x2142778)
             ($main_sum126 $a12062716 $a22072717 $a32082718 $a42092719 $a52102720 $a62112721 $a2122722 0 $x2142724 $a12062743 $a22072744 $a32082745 $a42092746 $a52102747 $a62112748 $a2122749 $i2132750 $x2142751)
             ($main_sum125 $a1206 $a2207 $a3208 $a4209 $a5210 $a6211 0 $i213 $x214 $a12062716 $a22072717 $a32082718 $a42092719 $a52102720 $a62112721 $a2122722 $i2132723 $x2142724))
        ($main_inv129 $a12062797 $a22072798 $a32082799 $a42092800 $a52102801 $a62112802 $a2122803 0 $x2142805))))

; loop term $main_sum129
(assert
  (forall (($x2142814 Int) ($i2132813 Int) ($a22072807 (Array Int Int)) ($a2122812 Int) ($a52102810 (Array Int Int)) ($a12062806 (Array Int Int)) ($a62112811 (Array Int Int)) ($a32082808 (Array Int Int)) ($a42092809 (Array Int Int)))
    (=> (and (not (< $i2132813 100000)))
        ($main_sum129 $a12062806 $a22072807 $a32082808 $a42092809 $a52102810 $a62112811 $a2122812 $i2132813 $x2142814 $a12062806 $a22072807 $a32082808 $a42092809 $a52102810 $a62112811 $a2122812 $i2132813 $x2142814))))

; forwards $main_inv129
(assert
  (forall (($x2142814 Int) ($i2132813 Int) ($a22072807 (Array Int Int)) ($a2122812 Int) ($a52102810 (Array Int Int)) ($a12062806 (Array Int Int)) ($a62112811 (Array Int Int)) ($a32082808 (Array Int Int)) ($a42092809 (Array Int Int)))
    (=> (and (< $i2132813 100000)
             ($main_inv129 $a12062806 $a22072807 $a32082808 $a42092809 $a52102810 $a62112811 $a2122812 $i2132813 $x2142814))
        ($main_inv129 $a12062806 $a22072807 $a32082808 $a42092809 (store $a52102810 $i2132813 (select $a42092809 $i2132813)) $a62112811 $a2122812 (+ $i2132813 1) $x2142814))))

; backwards $main_sum129
(assert
  (forall (($x2142814 Int) ($i2132822 Int) ($i2132813 Int) ($a52102819 (Array Int Int)) ($a22072807 (Array Int Int)) ($a42092818 (Array Int Int)) ($a52102810 (Array Int Int)) ($x2142823 Int) ($a22072816 (Array Int Int)) ($a32082817 (Array Int Int)) ($a62112811 (Array Int Int)) ($a32082808 (Array Int Int)) ($a2122812 Int) ($a2122821 Int) ($a62112820 (Array Int Int)) ($a12062806 (Array Int Int)) ($a42092809 (Array Int Int)) ($a12062815 (Array Int Int)))
    (=> (and ($main_sum129 $a12062806 $a22072807 $a32082808 $a42092809 (store $a52102810 $i2132813 (select $a42092809 $i2132813)) $a62112811 $a2122812 (+ $i2132813 1) $x2142814 $a12062815 $a22072816 $a32082817 $a42092818 $a52102819 $a62112820 $a2122821 $i2132822 $x2142823)
             (< $i2132813 100000))
        ($main_sum129 $a12062806 $a22072807 $a32082808 $a42092809 $a52102810 $a62112811 $a2122812 $i2132813 $x2142814 $a12062815 $a22072816 $a32082817 $a42092818 $a52102819 $a62112820 $a2122821 $i2132822 $x2142823))))

; loop entry $main_inv130
(assert
  (forall (($a32082718 (Array Int Int)) ($a52102774 (Array Int Int)) ($a6211 (Array Int Int)) ($a62112829 (Array Int Int)) ($a12062797 (Array Int Int)) ($a2122776 Int) ($a62112802 (Array Int Int)) ($a2122830 Int) ($x2142805 Int) ($a42092719 (Array Int Int)) ($i2132777 Int) ($a52102720 (Array Int Int)) ($x214 Int) ($a22072717 (Array Int Int)) ($a2122803 Int) ($a42092746 (Array Int Int)) ($a22072798 (Array Int Int)) ($a62112721 (Array Int Int)) ($a4209 (Array Int Int)) ($a32082799 (Array Int Int)) ($a52102801 (Array Int Int)) ($a62112775 (Array Int Int)) ($a12062824 (Array Int Int)) ($a32082772 (Array Int Int)) ($a12062770 (Array Int Int)) ($a22072744 (Array Int Int)) ($a52102747 (Array Int Int)) ($x2142724 Int) ($i2132723 Int) ($a52102828 (Array Int Int)) ($a2207 (Array Int Int)) ($a22072825 (Array Int Int)) ($a12062716 (Array Int Int)) ($x2142778 Int) ($a42092827 (Array Int Int)) ($a2122722 Int) ($a3208 (Array Int Int)) ($a22072771 (Array Int Int)) ($i2132750 Int) ($a12062743 (Array Int Int)) ($a1206 (Array Int Int)) ($i2132804 Int) ($x2142832 Int) ($i213 Int) ($a32082745 (Array Int Int)) ($a42092773 (Array Int Int)) ($x2142751 Int) ($a5210 (Array Int Int)) ($a2122749 Int) ($i2132831 Int) ($a42092800 (Array Int Int)) ($a32082826 (Array Int Int)) ($a62112748 (Array Int Int)))
    (=> (and ($main_sum129 $a12062797 $a22072798 $a32082799 $a42092800 $a52102801 $a62112802 $a2122803 0 $x2142805 $a12062824 $a22072825 $a32082826 $a42092827 $a52102828 $a62112829 $a2122830 $i2132831 $x2142832)
             ($main_sum128 $a12062770 $a22072771 $a32082772 $a42092773 $a52102774 $a62112775 $a2122776 0 $x2142778 $a12062797 $a22072798 $a32082799 $a42092800 $a52102801 $a62112802 $a2122803 $i2132804 $x2142805)
             ($main_sum127 $a12062743 $a22072744 $a32082745 $a42092746 $a52102747 $a62112748 $a2122749 0 $x2142751 $a12062770 $a22072771 $a32082772 $a42092773 $a52102774 $a62112775 $a2122776 $i2132777 $x2142778)
             ($main_sum126 $a12062716 $a22072717 $a32082718 $a42092719 $a52102720 $a62112721 $a2122722 0 $x2142724 $a12062743 $a22072744 $a32082745 $a42092746 $a52102747 $a62112748 $a2122749 $i2132750 $x2142751)
             ($main_sum125 $a1206 $a2207 $a3208 $a4209 $a5210 $a6211 0 $i213 $x214 $a12062716 $a22072717 $a32082718 $a42092719 $a52102720 $a62112721 $a2122722 $i2132723 $x2142724))
        ($main_inv130 $a12062824 $a22072825 $a32082826 $a42092827 $a52102828 $a62112829 $a2122830 0 $x2142832))))

; loop term $main_sum130
(assert
  (forall (($a32082835 (Array Int Int)) ($a22072834 (Array Int Int)) ($a52102837 (Array Int Int)) ($i2132840 Int) ($a12062833 (Array Int Int)) ($a62112838 (Array Int Int)) ($a42092836 (Array Int Int)) ($x2142841 Int) ($a2122839 Int))
    (=> (and (not (< $i2132840 100000)))
        ($main_sum130 $a12062833 $a22072834 $a32082835 $a42092836 $a52102837 $a62112838 $a2122839 $i2132840 $x2142841 $a12062833 $a22072834 $a32082835 $a42092836 $a52102837 $a62112838 $a2122839 $i2132840 $x2142841))))

; forwards $main_inv130
(assert
  (forall (($a32082835 (Array Int Int)) ($a22072834 (Array Int Int)) ($a52102837 (Array Int Int)) ($i2132840 Int) ($a12062833 (Array Int Int)) ($a62112838 (Array Int Int)) ($a42092836 (Array Int Int)) ($x2142841 Int) ($a2122839 Int))
    (=> (and (< $i2132840 100000)
             ($main_inv130 $a12062833 $a22072834 $a32082835 $a42092836 $a52102837 $a62112838 $a2122839 $i2132840 $x2142841))
        ($main_inv130 $a12062833 $a22072834 $a32082835 $a42092836 $a52102837 (store $a62112838 $i2132840 (select $a52102837 $i2132840)) $a2122839 (+ $i2132840 1) $x2142841))))

; backwards $main_sum130
(assert
  (forall (($a32082844 (Array Int Int)) ($a42092845 (Array Int Int)) ($i2132849 Int) ($a2122848 Int) ($a62112847 (Array Int Int)) ($a22072834 (Array Int Int)) ($a12062842 (Array Int Int)) ($a52102837 (Array Int Int)) ($i2132840 Int) ($a12062833 (Array Int Int)) ($a22072843 (Array Int Int)) ($a32082835 (Array Int Int)) ($x2142850 Int) ($a52102846 (Array Int Int)) ($a62112838 (Array Int Int)) ($a42092836 (Array Int Int)) ($x2142841 Int) ($a2122839 Int))
    (=> (and ($main_sum130 $a12062833 $a22072834 $a32082835 $a42092836 $a52102837 (store $a62112838 $i2132840 (select $a52102837 $i2132840)) $a2122839 (+ $i2132840 1) $x2142841 $a12062842 $a22072843 $a32082844 $a42092845 $a52102846 $a62112847 $a2122848 $i2132849 $x2142850)
             (< $i2132840 100000))
        ($main_sum130 $a12062833 $a22072834 $a32082835 $a42092836 $a52102837 $a62112838 $a2122839 $i2132840 $x2142841 $a12062842 $a22072843 $a32082844 $a42092845 $a52102846 $a62112847 $a2122848 $i2132849 $x2142850))))

; loop entry $main_inv131
(assert
  (forall (($a32082718 (Array Int Int)) ($a52102774 (Array Int Int)) ($a6211 (Array Int Int)) ($a2122857 Int) ($a62112829 (Array Int Int)) ($a12062797 (Array Int Int)) ($a2122776 Int) ($a62112802 (Array Int Int)) ($x2142805 Int) ($a32082853 (Array Int Int)) ($i2132777 Int) ($a52102720 (Array Int Int)) ($a22072717 (Array Int Int)) ($a2122803 Int) ($a42092746 (Array Int Int)) ($i2132858 Int) ($a22072798 (Array Int Int)) ($a62112721 (Array Int Int)) ($a4209 (Array Int Int)) ($a32082799 (Array Int Int)) ($a52102801 (Array Int Int)) ($a62112775 (Array Int Int)) ($a12062824 (Array Int Int)) ($a32082772 (Array Int Int)) ($a12062770 (Array Int Int)) ($a22072744 (Array Int Int)) ($a12062851 (Array Int Int)) ($a52102747 (Array Int Int)) ($x2142724 Int) ($i2132723 Int) ($a52102828 (Array Int Int)) ($a2207 (Array Int Int)) ($a22072825 (Array Int Int)) ($a12062716 (Array Int Int)) ($x2142778 Int) ($a42092827 (Array Int Int)) ($a2122722 Int) ($a3208 (Array Int Int)) ($a22072771 (Array Int Int)) ($a42092854 (Array Int Int)) ($i2132750 Int) ($a12062743 (Array Int Int)) ($a1206 (Array Int Int)) ($i2132804 Int) ($x2142832 Int) ($i213 Int) ($a32082745 (Array Int Int)) ($a42092773 (Array Int Int)) ($x2142751 Int) ($a5210 (Array Int Int)) ($a2122749 Int) ($a2122830 Int) ($a22072852 (Array Int Int)) ($a52102855 (Array Int Int)) ($a42092719 (Array Int Int)) ($i2132831 Int) ($a42092800 (Array Int Int)) ($a32082826 (Array Int Int)) ($a62112748 (Array Int Int)) ($a62112856 (Array Int Int)) ($x2142859 Int) ($x214 Int))
    (=> (and ($main_sum130 $a12062824 $a22072825 $a32082826 $a42092827 $a52102828 $a62112829 $a2122830 0 $x2142832 $a12062851 $a22072852 $a32082853 $a42092854 $a52102855 $a62112856 $a2122857 $i2132858 $x2142859)
             ($main_sum129 $a12062797 $a22072798 $a32082799 $a42092800 $a52102801 $a62112802 $a2122803 0 $x2142805 $a12062824 $a22072825 $a32082826 $a42092827 $a52102828 $a62112829 $a2122830 $i2132831 $x2142832)
             ($main_sum128 $a12062770 $a22072771 $a32082772 $a42092773 $a52102774 $a62112775 $a2122776 0 $x2142778 $a12062797 $a22072798 $a32082799 $a42092800 $a52102801 $a62112802 $a2122803 $i2132804 $x2142805)
             ($main_sum127 $a12062743 $a22072744 $a32082745 $a42092746 $a52102747 $a62112748 $a2122749 0 $x2142751 $a12062770 $a22072771 $a32082772 $a42092773 $a52102774 $a62112775 $a2122776 $i2132777 $x2142778)
             ($main_sum126 $a12062716 $a22072717 $a32082718 $a42092719 $a52102720 $a62112721 $a2122722 0 $x2142724 $a12062743 $a22072744 $a32082745 $a42092746 $a52102747 $a62112748 $a2122749 $i2132750 $x2142751)
             ($main_sum125 $a1206 $a2207 $a3208 $a4209 $a5210 $a6211 0 $i213 $x214 $a12062716 $a22072717 $a32082718 $a42092719 $a52102720 $a62112721 $a2122722 $i2132723 $x2142724))
        ($main_inv131 $a12062851 $a22072852 $a32082853 $a42092854 $a52102855 $a62112856 $a2122857 $i2132858 0))))

; loop term $main_sum131
(assert
  (forall (($a42092863 (Array Int Int)) ($i2132867 Int) ($a62112865 (Array Int Int)) ($a52102864 (Array Int Int)) ($a32082862 (Array Int Int)) ($a12062860 (Array Int Int)) ($a2122866 Int) ($x2142868 Int) ($a22072861 (Array Int Int)))
    (=> (and (not (< $x2142868 100000)))
        ($main_sum131 $a12062860 $a22072861 $a32082862 $a42092863 $a52102864 $a62112865 $a2122866 $i2132867 $x2142868 $a12062860 $a22072861 $a32082862 $a42092863 $a52102864 $a62112865 $a2122866 $i2132867 $x2142868))))

; __VERIFIER_assert precondition
(assert
  (forall (($a42092863 (Array Int Int)) ($i2132867 Int) ($a62112865 (Array Int Int)) ($a52102864 (Array Int Int)) ($a32082862 (Array Int Int)) ($a12062860 (Array Int Int)) ($a2122866 Int) ($x2142868 Int) ($a22072861 (Array Int Int)))
    (=> (and (< $x2142868 100000)
             ($main_inv131 $a12062860 $a22072861 $a32082862 $a42092863 $a52102864 $a62112865 $a2122866 $i2132867 $x2142868))
        ($__VERIFIER_assert_pre (ite (= (select $a12062860 $x2142868) (select $a62112865 $x2142868)) 1 0)))))

; forwards $main_inv131
(assert
  (forall (($a42092863 (Array Int Int)) ($i2132867 Int) ($a62112865 (Array Int Int)) ($a52102864 (Array Int Int)) ($a32082862 (Array Int Int)) ($a12062860 (Array Int Int)) ($a2122866 Int) ($x2142868 Int) ($a22072861 (Array Int Int)))
    (=> (and (__VERIFIER_assert (ite (= (select $a12062860 $x2142868) (select $a62112865 $x2142868)) 1 0))
             (< $x2142868 100000)
             ($main_inv131 $a12062860 $a22072861 $a32082862 $a42092863 $a52102864 $a62112865 $a2122866 $i2132867 $x2142868))
        ($main_inv131 $a12062860 $a22072861 $a32082862 $a42092863 $a52102864 $a62112865 $a2122866 $i2132867 (+ $x2142868 1)))))

; backwards $main_sum131
(assert
  (forall (($a42092872 (Array Int Int)) ($a42092863 (Array Int Int)) ($i2132867 Int) ($a12062869 (Array Int Int)) ($a62112865 (Array Int Int)) ($a62112874 (Array Int Int)) ($a52102864 (Array Int Int)) ($a2122875 Int) ($a12062860 (Array Int Int)) ($x2142868 Int) ($x2142877 Int) ($a22072861 (Array Int Int)) ($a22072870 (Array Int Int)) ($a32082862 (Array Int Int)) ($a2122866 Int) ($a32082871 (Array Int Int)) ($i2132876 Int) ($a52102873 (Array Int Int)))
    (=> (and ($main_sum131 $a12062860 $a22072861 $a32082862 $a42092863 $a52102864 $a62112865 $a2122866 $i2132867 (+ $x2142868 1) $a12062869 $a22072870 $a32082871 $a42092872 $a52102873 $a62112874 $a2122875 $i2132876 $x2142877)
             (__VERIFIER_assert (ite (= (select $a12062860 $x2142868) (select $a62112865 $x2142868)) 1 0))
             (< $x2142868 100000))
        ($main_sum131 $a12062860 $a22072861 $a32082862 $a42092863 $a52102864 $a62112865 $a2122866 $i2132867 $x2142868 $a12062869 $a22072870 $a32082871 $a42092872 $a52102873 $a62112874 $a2122875 $i2132876 $x2142877))))

(check-sat)
